(set-logic BV) (define-fun origCir ((n265 Bool) (n260 Bool) (n256 Bool) (n252 Bool)) Bool (xor (and n265 (xor (and n260 (not (xor n256 n252))) (xor n256 n252))) (xor (and n260 (not (xor n256 n252))) (xor n256 n252)))) (synth-fun skel ((n265 Bool) (n260 Bool) (n256 Bool) (n252 Bool)) Bool) (declare-var n265 Bool) (declare-var n260 Bool) (declare-var n256 Bool) (declare-var n252 Bool) (constraint (= (origCir n265 n260 n256 n252) (skel n265 n260 n256 n252))) (check-synth)
